32	3
13	18	20
0	0	0	0	2	2	4
2	1	1	1	1	3
8	1	1	1	2	6	9
2	1	1	5	2	5	7
2	1	1	2	3	8	9	10
9	1	1	1	2	7	8
7	1	1	1	2	10	11
10	1	1	1	2	11	12
5	1	1	1	2	11	12
5	1	1	1	3	12	14	17
3	1	1	1	4	13	14	16	17
5	1	1	2	2	13	16
4	2	1	1	1	15
9	1	6	1	1	15
8	1	1	5	3	18	19	23
5	1	1	1	3	18	19	23
5	1	1	1	2	18	23
8	4	1	6	1	20
4	1	5	1	1	20
2	1	1	7	1	21
9	1	1	1	3	22	25	26
2	5	7	1	2	24	27
4	1	1	4	2	24	27
7	1	1	1	3	28	29	31
7	1	1	1	2	28	31
5	1	10	1	2	28	29
8	1	1	1	2	30	31
5	1	1	1	1	30
7	2	1	1	1	30
9	1	1	7	1	32
2	1	1	1	1	32
0	0	0	0	0
